c Lingeling SAT Solver
c 
c Version ala b02aa1a04343558c4252b5f4a723be021964f652
c 
c Copyright (C) 2010-2012 Armin Biere JKU Linz Austria.
c All rights reserved.
c 
c released Sat Oct 13 14:05:26 CEST 2012
c compiled Sat Feb 16 02:48:12 EST 2013
c 
c gcc (Debian 4.4.5-8) 4.4.5
c -Wall -O3 -DNLGLOG -DNDEBUG -DNCHKSOL -DNLGLPICOSAT 
c Linux greencar2 2.6.32-5-amd64 x86_64
c 
c reading input file p35.cnf
c no embedded options
c found 'p cnf 226467 702864' header
c read 226467 variables, 702864 clauses, 1462463 literals in 0.0 seconds
c
c feature vars 226467
c feature lits.total 1462463
c feature lits.pos 778704
c feature lits.neg 683759
c feature clauses.total 702864
c feature clauses.unit 84337
c feature clauses.bin 494855
c feature clauses.trn 122272
c feature clauses.lrg 1400
c feature cog.val.min 1
c feature cog.val.avg 100931
c feature cog.val.max 218125
c feature cog.var.min 1
c feature cog.var.avg 113234
c feature cog.var.max 226466
c
c
c --abstime=0
c --acts=2
c --actavgmax=120
c --actstdmin=20
c --actstdmax=80
c --agile=23
c --bias=2
c --block=1
c --blkrtc=0
c --blkclslim=2000
c --blkocclim=2000
c --blkmaxeff=2147483647
c --blkmineff=10000000
c --blkreleff=20
c --card=0
c --cce=3
c --ccemaxeff=100000000
c --ccemineff=5000000
c --ccereleff=3
c --check=0
c --cgrclsr=1
c --cgrmaxority=20
c --cgrmaxeff=8000000
c --cgrmineff=200000
c --cgreleff=1
c --cgrexteq=1
c --cgrextand=1
c --cgrextunits=1
c --cgrextite=1
c --cgrextxor=1
c --cliff=1
c --cliffreleff=8
c --cliffmineff=10000000
c --cliffmaxeff=100000000
c --compact=0
c --decompose=1
c --defragint=10000000
c --defragfree=50
c --elim=1
c --elmrtc=0
c --elmblk=1
c --elmclslim=1000
c --elmocclim=1000
c --elmaxeff=100000000
c --elmineff=5000000
c --elmreleff=10
c --sleeponabort=0
c --exitonabort=0
c --flipping=1
c --flipint=2
c --flipdur=50
c --fliptop=1
c --force=0
c --gauss=1
c --gaussextrall=1
c --gaussmaxor=20
c --gaussexptrn=1
c --gaussmaxeff=50000000
c --gaussmineff=2000000
c --gaussreleff=2
c --gluescale=2
c --gluekeep=0
c --inprocessing=1
c --cintinc=10000
c --irrlim=20
c --lift=1
c --lftmaxeff=20000000
c --lftmineff=500000
c --lftreleff=6
c --lhbr=1
c --lkhd=1
c --clim=-1
c --mocint=1000
c --move=2
c --log=-1
c --otfs=1
c --phase=0
c --phaseneginit=0
c --plain=0
c --probe=1
c --prbasicmaxeff=100000000
c --prbasicmineff=1000000
c --prbasicreleff=10
c --prbasic=1
c --prbasicroundlim=9
c --queuemergelim=10000
c --queuefactor=833
c --queueinc=20
c --rmincpen=4
c --seed=0
c --smallirr=90
c --smallve=1
c --smallvevars=12
c --randec=1
c --randecint=1000
c --redfixed=0
c --redlbound=0
c --redlexpfac=10
c --redldoutfac=0
c --redloutinc=10000
c --redlinit=1000
c --redlinc=1000
c --redinoutinc=100
c --redlmininc=10
c --redlmaxinc=200
c --redlminrel=10
c --redlmaxrel=300
c --redlminabs=500
c --redlmaxabs=1000000
c --reduce=1
c --restart=2
c --restartint=5
c --rstinoutinc=110
c --simplify=1
c --simpdelay=100
c --simpen=4
c --sizepen=1000000
c --sizemaxpen=3
c --sortlits=0
c --syncint=111111
c --termint=122222
c --ternres=1
c --ternresrtc=0
c --trnrmineff=4000000
c --trnrmaxeff=40000000
c --trnreleff=10
c --transred=1
c --trdmineff=100000
c --trdmaxeff=2000000
c --trdreleff=10
c --unhide=1
c --unhdextstamp=1
c --unhdhbr=0
c --unhdmaxeff=20000000
c --unhdmineff=1000000
c --unhdreleff=4
c --unhdlnpr=3
c --unhdroundlim=5
c --verbose=1
c --witness=1
c [limits] no conflict limit
c [limits] simplification delayed by 100 to 100 conflicts
c 
c  seconds         irredundant          redundant clauses agility   height
c          variables clauses conflicts large binary ternary    glue         MB
c 
c *    0.0  125472   527061         0       0      0     0  64  0.0   0.0   42
c [cut-width] 175742, max 271681, min4 118824 at 75%, min10 32549 at 90%
c [decision-order] bias 1, old 1
c [queue-schedule-all-variables]
c s    0.0  125472   527061         0       0      0     0  64  0.0   0.0   42
c [simplification-1] limit hit at 100 conflicts
c [simplification-1] simplification penalty of 4
c [ternres-1] limit 4000000 with penalty 0 = 0 + 0
c [ternres-1] all 125472 free variables schedulable
c [ternres-1] 0 ternary resolvents (0 bin, 0 trn)
c [ternres-1] 29152 variables remain 23% (96320 retained)
c [gauss-1] limit 2000000 penalty 0 = 0 + 0
c [gauss-1] extracted 165125 xors of average arity 2.0
c [gauss-1] connected 330251 occurrences of 112916 variables (average 2.9)
c [gauss-1] limit 2000000 penalty 0 = 0 + 0
c [gauss-1] exported 0 unary, 0 binary and 0 ternary equations
c G    1.1  125472   505771       100     100      0     0  59  5.6 275.2   28
c d    1.4   57978   263511       100     100      0     0  59  5.6 275.2   21
c [basicprobe-1] limit 1000000 penalty 0 = 0 + 0
c [basicprobe-1-0] 3966 probes remain 7% after last round
c [basicprobe-1-0] removed 0 variables, found 2705 hbrs
c p    1.5   57978   263511       100     100   2705     0  59  5.6 275.2   25
c [cgrclsr-1] limit 200000 penalty 0 = 0 + 0
c [cgrclsr-1] all 57978 free variables schedulable
c [cgrclsr-1] fully completed congruence closure
c [lift-1] limit 500000 with penalty 0 = 0 + 0
c [lift-1] using 57978 probes 100%
c [lift-1] 57948 variables remain 100% (30 retained)
c [cliff-1] limit of 10000000 steps penalty 0 = 0 + 0
c [cliff-1] failed 1, lifted 1
c K    2.4   57976   263511       100     100  19631     0  59  5.6 275.2   25
c [unhide-1] limit 1000000 with penalty 0 = 0 + 0
c [unhide-1-1] 0 units, 0 failed, 21879 tauts, 0 hbrs, 65 literals
c u    2.6   57976   241622       100     100  19631     0  59  5.6 275.2   26
c [transred-1] limit 100000 with penalty 0 = 0 + 0
c t    2.6   57976   241622       100     100  19624     0  59  5.6 275.2   26
c [block-1] scheduling all variables this time
c [block-1] scheduled 57976 variables 100%
c [block-1] limit of 10000000 steps penalty 0 = 0 + 0
c [block-1] fully completed blocked clause elimination
c [block-1] transition to [ all 0 rem 0 ] state
c [block-1] eliminated 4400 blocked clauses
c k    2.9   57976   237222       100     100  19624  4400  59  5.6 275.2   21
c [cce-1] scheduling all variables this time
c [cce-1] limit of 10000000 steps penalty 0 = 0 + 0
c [cce-1] incomplete covered clause elimination 52588 not tried 91%
c [cce-1] transition to [ all 1 rem 1 ] state
c [cce-1] eliminated 109 covered clauses
c E    3.6   57974   237113       100     100  28533  4400  59  5.6 275.2   21
c [elim-1] scheduling all variables this time
c [elim-1] scheduled 57974 variables 100%
c [elim-1] limit of 5000000 steps penalty 0 = 0 + 0
c [elim-1] incomplete variable elimination 43403 not tried 75%
c [elim-1] transition to [ all 1 rem 1 ] state
c [elim-1] eliminated 6204 = 11% variables out of 57974
c e    5.1   51770   233403       100      64  10705   560  59  5.6 275.2   21
c [phase-1] phase bias: 394 positive 22%, 1430 negative 78%
c [simplification-1] removed 73702 variables 58%
c [simplification-1] limit increments divided by 30
c [simplification-1] arithmetic increase of conflict limit interval by 333
c [simplification-1] new irredundant limit 2303334
c [simplification-1] new conflict limit 433
c [simplification-1] simplification penalty reduced to 3
c [simplification-2] limit hit at 434 conflicts
c [simplification-2] simplification penalty of 3
c [ternres-2] limit 2000000 with penalty 1 = 1 + 0
c [ternres-2] 11983 schedulable variables 23%
c [ternres-2] 8 ternary resolvents (0 bin, 8 trn)
c [ternres-2] fully completed ternary resolution
c T    5.3   51770   233403       434     391  10707   572  27 13.1 534.4   26
c [gauss-2] limit 1000000 penalty 1 = 1 + 0
c [gauss-2] extracted 428 xors of average arity 3.0
c [gauss-2] connected 1284 occurrences of 905 variables (average 1.4)
c [gauss-2] limit 1000000 penalty 1 = 1 + 0
c [gauss-2] fully completed
c [gauss-2] exported 0 unary, 0 binary and 0 ternary equations
c G    5.5   51770   233403       434     391  10707   572  27 13.1 534.4   21
c [basicprobe-2] limit 500000 penalty 1 = 1 + 0
c [basicprobe-2-0] 4037 probes remain 8% after last round
c [basicprobe-2-0] removed 0 variables, found 581 hbrs
c p    5.7   51770   233403       434     391  11288   572  27 13.1 534.4   25
c [cgrclsr-2] limit 100000 penalty 1 = 1 + 0
c [cgrclsr-2] all 51770 free variables schedulable
c [cgrclsr-2] fully completed congruence closure
c [lift-2] limit 250000 with penalty 1 = 1 + 0
c [lift-2] using 51743 probes 100%
c [lift-2] 51731 variables remain 100% (39 retained)
c [cliff-2] limit of 10000000 steps penalty 0 = 0 + 0
c [cliff-2] failed 0, lifted 0
c [unhide-2] limit 1000000 with penalty 0 = 0 + 0
c [unhide-2-2] 0 units, 0 failed, 1662 tauts, 0 hbrs, 199 literals
c u    6.7   51770   233384       434     390  10308   572  27 13.1 534.4   25
c [transred-3] limit 100000 with penalty 0 = 0 + 0
c t    6.7   51770   233383       434     390  10302   572  27 13.1 534.4   25
c [block-2] scheduling all variables this time
c [block-2] scheduled 51770 variables 100%
c [block-2] limit of 10000000 steps penalty 0 = 0 + 0
c [block-2] fully completed blocked clause elimination
c [block-2] transition to [ all 0 rem 0 ] state
c [block-2] eliminated 0 blocked clauses
c [cce-2] 49054 variables 95% will be scheduled this time
c [cce-2] limit of 10000000 steps penalty 0 = 0 + 0
c [cce-2] 48517 variables 94% remain to be tried next time
c [cce-2] transition to [ all 0 rem 1 ] state
c [cce-2] eliminated 326 covered clauses
c E    7.5   51770   233057       434     390  10681   572  27 13.1 534.4   21
c [elim-2] 43348 variables 84% will be scheduled this time
c [elim-2] scheduled 43348 variables 84%
c [elim-2] limit of 5000000 steps penalty 0 = 0 + 0
c [elim-2] 33313 variables 64% remain to be tried next time
c [elim-2] transition to [ all 0 rem 1 ] state
c [elim-2] eliminated 1021 = 2% variables out of 51770
c e    9.2   50749   232581       434     386   7653   572  27 13.1 534.4   21
c [simplification-2] removed 1021 variables 1%
c [simplification-2] no reduction of limit increments
c [simplification-2] arithmetic increase of conflict limit interval by 10000
c [simplification-2] new irredundant limit 2303334
c [simplification-2] new conflict limit 10767
c [simplification-2] simplification penalty reduced to 2
c R    9.5   50749   232581       979     881   7668   605   8  9.5 345.4   26
c -    9.7   50749   232581      1147     508   7679   626   7  8.8 302.5   26
c R   10.3   50749   232581      2277    1541   7707   689   5  8.5 287.1   26
c -   11.7   50749   232581      4066    1526   7791   859   4  7.4 250.9   26
c R   12.1   50749   232581      5186    2598   7804   893   7  8.0 262.3   26
c 
c  seconds         irredundant          redundant clauses agility   height
c          variables clauses conflicts large binary ternary    glue         MB
c 
c 1   13.3   50749   232581      6737    3925   7875  1024   4  7.4 257.9   26
c 
c  seconds         irredundant          redundant clauses agility   height
c          variables clauses conflicts large binary ternary    glue         MB
c 
c blkd: 2 bces, 4400 removed, 1381377 resolutions, 3852538 steps
c blkd: 4400 blocking literals 1%, 0 pure
c cces: 2 cces, 427 eliminated, 427 ate 100%, 0 abce 0%
c cces: 11852 probed, 0 lifted, 2 failed
c clff: 2 cliffs, 1 lifted, 1 failed
c clff: 8668 decisions, 20010507 steps
c clls: 1 sat, 0 simp, 0 freeze, 0 melt
c clls: 2165327 add, 0 assume,, 0 deref, 0 failed
c clls: 0 cassume, 0 mosat
c coll: 12 gcs, 0 rescored clauses
c cgrs: 2 count, 300000 esteps, 61036 csteps
c cgrs: 0 eqs, 0 units
c cgrs: 0 matched (0 ands 0%, 0 xors 0%, 0 ites 0%)
c cgrs: 0 simplified (0 ands 0%, 0 xors 0%, 0 ites 0%)
c cgrs: 1950 extracted (1656 ands 85%, 294 xors 15%, 0 ites 0%)
c dcps: 2 decompositions, 67494 equivalent 30%
c decs: 123777 decision, 120 random 0.097%
c decs: 24842 flipped 20.070% (in 42 phases)
c elms: 2 elims, 7225 eliminated 3%
c elms: 7225 small 100%, 0 large 0%
c elms: 24726 tried small, 7225 succeeded 29%, 17501 failed 71%
c elms: 0 subsumed, 0 strengthened, 0 blocked
c elms: 313686 copies, 218172 resolutions, 649346 ipos
c elms: 0 subchks, 0 strchks
c frcs: 0 computed, 29.2 - 70.8 average min-cut range
c gaus: 2 extractions, 165553 extracted, 2.0 size, 3 max
c gaus: exported 0 units, 0 binary and 0 ternary equations
c gaus: 0 gc, 6000042 steps, 3000021 extr 50%, 2185943 elim 36%
c glue: 7.4 avg, 2.7 scaled avg
c glue: 0 maxredglue=15 (0%)
c lift: 2 phases, 252 probed (84 level1 33%, 168 level2 67%)
c lift: 0 units, 0 equivalences, 0 implications
c hbrs: 29767 hbrs = 29767 trn 100% + 0 lrg 0%, 0 sub 0%
c lrnd: 6684 clauses, 4088 uips 61%, 28.0 length, 7.4 glue
c ints: 365 luby (42299 steps), 0 inout (0 steps)
c mins: 187393 learned lits, 6% minimized
c move: moved 4827, 427 binary 9%, 4400 ternary 91%
c otfs: str 400 dyn (358 red, 42 irr) 53 drv 13%, 347 rst 87%
c otfs: sub 4 dyn (4 red, 0 irr)
c phas: 1 computed, 2021 set, 394 pos (19%), 1627 neg (81%)
c prbs: 2 basic, 1796 probed, 0 failed, 0 lifted
c prps: 20347005 props, 110 props/dec
c prps: 67% srch, 33% simp, 0% lkhd
c psns: 873499 searches, 112667 hits, 13% hit rate
c queu: 25721 new, 9126 del, 120 maximum priority
c queu: 16582 merged, 11208 collected, 3 gcs
c queu: 7084 deprioritized, 23.7 lines on average
c reds: 2 count, 0 reset, 2 acts 100%, 0 exp 0%
c reds: 2 arithmetic 100%, 2 double 100%
c rmbd: 19 removed, 0 red 0%
c rsts: 297 restarts 82%, 67 skipped 18%
c rsts: 53 kept 17.8% average 46.2%
c simp: 2 count (0 ilim 0%, 0 plim 0%, 2 clim 100%)
c trnr: 2 count, 0 bin, 8 trn, 4972075 steps
c tops: 100999 fixed 45%, 0 iterations
c trds: 4 transitive reductions, 14 removed, 0 failed
c trds: 242 nodes, 323 edges, 201445 steps
c unhd: 2 count, 2 rounds, 2460889 steps
c unhd: 0 non-trivial sccs of average size 0.0
c unhd: 0 units, 0 bin, 0 trn, 0 lrg
c unhd: 0 failed, 0 stamp, 0 lits, 0 bin, 0 trn, 0 lrg
c unhd: 23541 tauts, 0 bin 0%, 0 trn 0%, 0 lrg 0%
c unhd: 23541 tauts, 23541 stamp 100%, 1662 red 7%
c unhd: 0 hbrs, 0 trn 0%, 0 lrg 0%, 0 red 0%
c unhd: 264 strd, 0 bin 0%, 1 trn 0%, 263 lrg 100%, 264 red 100%
c vars: 50749 remaining 22% and 175718 removed 78% out of 226467
c vars: 100999 fixed 45%, 7225 eliminated 3%, 67494 equivalent 30%
c vsts: 98202514 visits, 69% srch, 31% simp, 0% lkhd
c vsts: 5.0 search visits per propagation 10044.4 per conflict
c wchs: 8902801 pushed, 3757726 enlarged, 20 defrags
c 
c scaledglue  added       reduced       forcing      resolved     conflicts
c 
c all      6015 100      2034 100     36957 100     14008 100      1328 100
c 
c  0          0   0         0   0         0   0         0   0         0   0 
c  1         51   1        13   1       251   1       105   1         2   0 
c  2       2181  36       811  40     14514  39      4290  31       358  27 
c  3       2065  34<      634  31<    13999  38<     5116  37<      561  42<
c  4       1081  18       306  15      6779  18      3174  23       311  23 
c  5        489   8       197  10      1193   3      1070   8        82   6 
c  6        120   2        61   3       180   0       209   1        11   1 
c  7         20   0        12   1        30   0        30   0         2   0 
c  8          8   0         0   0        11   0        14   0         1   0 
c  9          0   0         0   0         0   0         0   0         0   0 
c 10          0   0         0   0         0   0         0   0         0   0 
c 11          0   0         0   0         0   0         0   0         0   0 
c 12          0   0         0   0         0   0         0   0         0   0 
c 13          0   0         0   0         0   0         0   0         0   0 
c 14          0   0         0   0         0   0         0   0         0   0 
c 15          0   0         0   0         0   0         0   0         0   0 
c 
c avg             3.0           3.0           2.9           3.1           3.1
c std             1.1           1.2           0.9           1.0           0.9
c 
c 123777 decisions, 6737 conflicts, 506.4 conflicts/sec
c 20347005 propagations, 1.5 megaprops/sec
c 13.3 seconds, 48.7 MB
c 
c    0.660   5% analysis
c    0.456   3% block
c    0.020   0% bump
c    0.000   0% card
c    1.276  10% cce
c    1.156   9% cliff
c    0.028   0% cutwidth
c    0.184   1% decide
c    0.000   0% force
c    0.900   7% gc
c    0.328   2% cgrclsr
c    0.388   3% decomp
c    0.224   2% defrag
c    3.172  24% elim
c    1.096   8% gauss
c    0.308   2% lift
c    0.132   1% mincls
c    0.040   0% phase
c    0.164   1% probe
c    0.012   0% reduce
c    0.316   2% restart
c    0.136   1% ternres
c    0.020   0% transred
c    0.408   3% unhide
c ==================================
c    0.036   0% preprocessing     0%
c    9.093  68% inprocessing    100%
c ==================================
c    9.129  69% simplifying
c    0.000   0% lookahead
c    4.160  31% search
c ==================================
c   13.305 100% all
c
s SATISFIABLE
